benchmarks/bfuzz0/1792936713275120195133027471285113356.smt2
(set-logic QF_FP)
(declare-const x0 (_ FloatingPoint 8 24))
(declare-const x1 (_ FloatingPoint 8 24))
(declare-const x2 (_ FloatingPoint 8 24))
(declare-const x3 (_ FloatingPoint 8 24))
(declare-const x4 (_ FloatingPoint 8 24))
(declare-const x5 (_ FloatingPoint 8 24))
(declare-const x6 (_ FloatingPoint 8 24))
(declare-const x7 (_ FloatingPoint 8 24))
(declare-const x8 (_ FloatingPoint 8 24))
(assert (fp.leq (fp.mul RNE x2 x8) (fp.neg x2)))
(assert (fp.leq (fp.div RNE x0 x8) (fp.add RNE x0 x4)))
(assert (fp.eq (fp.neg x6) (fp.sub RNE x6 x1)))
(assert (fp.lt (fp.mul RNE x6 x3) (fp.add RNE x7 x7)))
(assert (fp.gt (fp.neg x0) (fp.mul RNE x7 x3)))
(assert (fp.eq (fp.neg x4) (fp.sub RNE x4 x8)))
(assert (fp.geq (fp.sub RNE x1 x1) (fp.mul RNE x0 x2)))
(assert (fp.geq (fp.div RNE x2 x8) (fp.div RNE x2 x2)))
(assert (fp.lt (fp.sub RNE x3 x1) (fp.neg x7)))
(assert (fp.eq (fp.sub RNE x8 x8) (fp.add RNE x7 x1)))
(assert (fp.geq (fp.sub RNE x7 x1) (fp.sub RNE x1 x8)))
(assert (fp.geq (fp.div RNE x0 x5) (fp.div RNE x6 x0)))
(assert (fp.lt (fp.div RNE x5 x5) (fp.div RNE x1 x1)))
(assert (fp.leq (fp.div RNE x6 x0) (fp.div RNE x8 x6)))
(assert (fp.lt (fp.sub RNE x0 x2) (fp.mul RNE x8 x1)))
(assert (fp.eq (fp.add RNE x0 x1) (fp.neg x7)))
(assert (fp.eq (fp.div RNE x8 x8) (fp.neg x3)))
(assert (fp.eq (fp.mul RNE x4 x8) (fp.add RNE x8 x6)))
(assert (fp.leq (fp.mul RNE x2 x4) (fp.sub RNE x8 x2)))
(check-sat)
