db/data/1792936713275120195133027471285113356.z3.out
unsat
-------------------
58.676199772
